p cnf 131 122
-1 106 -110 -112 -124 -129 0 
-2 107 -108 -109 -111 -113 -123 -127 -128 -130 -131 0 
-3 31 -4 11 14 107 -108 -109 -111 -113 -123 -127 -128 -130 -131 0 
-5 51 81 -6 108 -107 -109 -111 -113 -123 -127 -128 -130 -131 0 
-7 89 -8 9 109 -107 -108 -111 -113 -123 -127 -128 -130 -131 0 
-9 8 -10 20 22 107 -108 -109 -111 -113 -123 -127 -128 -130 -131 0 
-11 4 14 107 -108 -109 -111 -113 -123 -127 -128 -130 -131 0 
-8 9 -12 21 23 29 107 -108 -109 -111 -113 -123 -127 -128 -130 -131 0 
-13 -14 4 11 107 -108 -109 -111 -113 -123 -127 -128 -130 -131 0 
-9 8 107 -108 -109 -111 -113 -123 -127 -128 -130 -131 0 
-14 4 11 107 -108 -109 -111 -113 -123 -127 -128 -130 -131 0 
-15 108 -107 -109 -111 -113 -123 -127 -128 -130 -131 0 
-16 -17 108 -107 -109 -111 -113 -123 -127 -128 -130 -131 0 
-18 48 104 108 -107 -109 -111 -113 -123 -127 -128 -130 -131 0 
-8 9 -19 107 -108 -109 -111 -113 -123 -127 -128 -130 -131 0 
-13 -8 9 -20 10 22 107 -108 -109 -111 -113 -123 -127 -128 -130 -131 0 
-13 -4 11 14 107 -108 -109 -111 -113 -123 -127 -128 -130 -131 0 
-8 9 -21 12 23 29 -22 10 20 107 -108 -109 -111 -113 -123 -127 -128 -130 -131 0 
-8 9 -23 12 21 29 -24 40 88 -6 107 -108 -109 -111 -113 -123 -127 -128 -130 -131 0 
-25 70 107 -108 -109 -111 -113 -123 -127 -128 -130 -131 0 
-26 107 -108 -109 -111 -113 -123 -127 -128 -130 -131 0 
-27 107 -108 -109 -111 -113 -123 -127 -128 -130 -131 0 
-28 45 107 -108 -109 -111 -113 -123 -127 -128 -130 -131 0 
-9 8 -29 12 21 23 107 -108 -109 -111 -113 -123 -127 -128 -130 -131 0 
-30 107 -108 -109 -111 -113 -123 -127 -128 -130 -131 0 
-31 3 -32 109 -107 -108 -111 -113 -123 -127 -128 -130 -131 0 
-3 31 107 -108 -109 -111 -113 -123 -127 -128 -130 -131 0 
-33 109 -107 -108 -111 -113 -123 -127 -128 -130 -131 0 
-31 3 -34 58 109 -107 -108 -111 -113 -123 -127 -128 -130 -131 0 
-35 109 -107 -108 -111 -113 -123 -127 -128 -130 -131 0 
-36 37 54 56 62 100 103 109 -107 -108 -111 -113 -123 -127 -128 -130 -131 0 
-37 36 54 56 62 100 103 107 -108 -109 -111 -113 -123 -127 -128 -130 -131 0 
-38 44 66 68 69 107 -108 -109 -111 -113 -123 -127 -128 -130 -131 0 
-39 49 91 107 -108 -109 -111 -113 -123 -127 -128 -130 -131 0 
-9 8 -40 24 88 107 -108 -109 -111 -113 -123 -127 -128 -130 -131 0 
-25 70 -41 -13 -8 9 107 -108 -109 -111 -113 -123 -127 -128 -130 -131 0 
-42 -8 9 107 -108 -109 -111 -113 -123 -127 -128 -130 -131 0 
-13 -8 9 -43 55 73 87 107 -108 -109 -111 -113 -123 -127 -128 -130 -131 0 
-5 51 81 -6 107 -108 -109 -111 -113 -123 -127 -128 -130 -131 0 
-44 38 66 68 69 110 -106 -112 -124 -129 0 
-13 -7 89 -14 4 11 111 -107 -108 -109 -113 -123 -127 -128 -130 -131 0 
-45 28 107 -108 -109 -111 -113 -123 -127 -128 -130 -131 0 
-46 107 -108 -109 -111 -113 -123 -127 -128 -130 -131 0 
-47 109 -107 -108 -111 -113 -123 -127 -128 -130 -131 0 
-48 18 104 109 -107 -108 -111 -113 -123 -127 -128 -130 -131 0 
-25 70 -8 9 107 -108 -109 -111 -113 -123 -127 -128 -130 -131 0 
-49 39 91 107 -108 -109 -111 -113 -123 -127 -128 -130 -131 0 
-9 8 -23 12 21 29 107 -108 -109 -111 -113 -123 -127 -128 -130 -131 0 
-50 76 90 -14 4 11 107 -108 -109 -111 -113 -123 -127 -128 -130 -131 0 
-51 5 81 107 -108 -109 -111 -113 -123 -127 -128 -130 -131 0 
-7 89 109 -107 -108 -111 -113 -123 -127 -128 -130 -131 0 
-52 67 112 -106 -110 -124 -129 0 
-53 113 -107 -108 -109 -111 -123 -127 -128 -130 -131 0 
-54 36 37 56 62 100 103 113 -107 -108 -109 -111 -123 -127 -128 -130 -131 0 
-8 9 -21 12 23 29 -55 43 73 87 107 -108 -109 -111 -113 -123 -127 -128 -130 -131 0 
-56 36 37 54 62 100 103 107 -108 -109 -111 -113 -123 -127 -128 -130 -131 0 
-57 109 -107 -108 -111 -113 -123 -127 -128 -130 -131 0 
-58 34 -9 8 107 -108 -109 -111 -113 -123 -127 -128 -130 -131 0 
-59 107 -108 -109 -111 -113 -123 -127 -128 -130 -131 0 
-60 114 -28 -45 -107 -108 -109 -111 -113 -123 -127 -128 -130 -131 0 
-61 -11 4 14 115 -32 -107 -108 -109 -111 -113 -123 -127 -128 -130 -131 0 
-61 -11 4 14 116 -107 -108 -109 -111 -113 -123 -127 -128 -130 -131 -1 0 
-62 36 37 54 56 100 103 -8 9 117 -38 -44 -66 -68 -69 -107 -108 -109 -111 -113 -123 -127 -128 -130 -131 0 
-60 118 -107 -108 -109 -111 -113 -123 -127 -128 -130 -131 -65 -96 0 
-63 119 -95 -107 -108 -109 -111 -113 -123 -127 -128 -130 -131 0 
-64 -14 4 11 120 -33 -107 -108 -109 -111 -113 -123 -127 -128 -130 -131 0 
-62 36 37 54 56 100 103 -8 9 121 -50 -76 -90 -107 -108 -109 -111 -113 -123 -127 -128 -130 -131 0 
-62 36 37 54 56 100 103 -8 9 122 -39 -49 -91 -107 -108 -109 -111 -113 -123 -127 -128 -130 -131 0 
-8 9 123 -107 -108 -109 -111 -113 -127 -128 -130 -131 0 
-65 96 107 -108 -109 -111 -113 -123 -127 -128 -130 -131 0 
-31 3 -1 109 -107 -108 -111 -113 -123 -127 -128 -130 -131 0 
-66 38 44 68 69 110 -106 -112 -124 -129 0 
-67 52 110 -106 -112 -124 -129 0 
-68 38 44 66 69 110 -106 -112 -124 -129 0 
-1 124 -106 -110 -112 -129 0 
-69 38 44 66 68 108 -107 -109 -111 -113 -123 -127 -128 -130 -131 0 
-70 25 124 -106 -110 -112 -129 0 
-71 -8 9 107 -108 -109 -111 -113 -123 -127 -128 -130 -131 0 
-26 -61 107 -108 -109 -111 -113 -123 -127 -128 -130 -131 0 
-72 -9 8 -73 43 55 87 107 -108 -109 -111 -113 -123 -127 -128 -130 -131 0 
-74 77 -75 -76 50 90 125 -61 -107 -108 -109 -111 -113 -123 -127 -128 -130 -131 0 
-77 74 -78 -79 94 -80 126 -107 -108 -109 -111 -113 -123 -127 -128 -130 -131 0 
-81 5 51 -6 127 -107 -108 -109 -111 -113 -123 -128 -130 -131 0 
-82 -2 107 -108 -109 -111 -113 -123 -127 -128 -130 -131 0 
-42 -8 9 -83 107 -108 -109 -111 -113 -123 -127 -128 -130 -131 0 
-84 -8 9 107 -108 -109 -111 -113 -123 -127 -128 -130 -131 0 
-85 98 -7 89 125 -61 -107 -108 -109 -111 -113 -123 -127 -128 -130 -131 0 
-86 -8 9 107 -108 -109 -111 -113 -123 -127 -128 -130 -131 0 
-5 51 81 -83 107 -108 -109 -111 -113 -123 -127 -128 -130 -131 0 
-8 9 -87 43 55 73 -88 24 40 -6 107 -108 -109 -111 -113 -123 -127 -128 -130 -131 0 
-8 9 -89 7 112 -106 -110 -124 -129 0 
-90 50 76 -91 39 49 -8 9 107 -108 -109 -111 -113 -123 -127 -128 -130 -131 0 
-92 126 -107 -108 -109 -111 -113 -123 -127 -128 -130 -131 0 
-91 39 49 -25 70 -8 9 107 -108 -109 -111 -113 -123 -127 -128 -130 -131 0 
-62 36 37 54 56 100 103 -8 9 114 -28 -45 -107 -108 -109 -111 -113 -123 -127 -128 -130 -131 0 
-63 121 -50 -76 -90 -107 -108 -109 -111 -113 -123 -127 -128 -130 -131 0 
-63 126 -107 -108 -109 -111 -113 -123 -127 -128 -130 -131 0 
-63 117 -38 -44 -66 -68 -69 -107 -108 -109 -111 -113 -123 -127 -128 -130 -131 0 
-93 101 107 -108 -109 -111 -113 -123 -127 -128 -130 -131 0 
-94 79 107 -108 -109 -111 -113 -123 -127 -128 -130 -131 0 
-78 -25 70 107 -108 -109 -111 -113 -123 -127 -128 -130 -131 0 
-95 -8 9 107 -108 -109 -111 -113 -123 -127 -128 -130 -131 0 
-96 65 -25 70 -8 9 107 -108 -109 -111 -113 -123 -127 -128 -130 -131 0 
-39 49 91 -95 107 -108 -109 -111 -113 -123 -127 -128 -130 -131 0 
-8 9 128 -107 -108 -109 -111 -113 -123 -127 -130 -131 0 
-30 -8 9 107 -108 -109 -111 -113 -123 -127 -128 -130 -131 0 
-3 31 -97 -98 85 -99 107 -108 -109 -111 -113 -123 -127 -128 -130 -131 0 
-100 36 37 54 56 62 103 107 -108 -109 -111 -113 -123 -127 -128 -130 -131 0 
-78 -100 36 37 54 56 62 103 -3 31 107 -108 -109 -111 -113 -123 -127 -128 -130 -131 0 
-7 89 129 -106 -110 -112 -124 0 
-101 93 -8 9 107 -108 -109 -111 -113 -123 -127 -128 -130 -131 0 
-102 -30 -8 9 115 -32 -107 -108 -109 -111 -113 -123 -127 -128 -130 -131 0 
-102 -30 -8 9 116 -107 -108 -109 -111 -113 -123 -127 -128 -130 -131 -1 0 
-103 36 37 54 56 62 100 130 -107 -108 -109 -111 -113 -123 -127 -128 -131 0 
-104 18 48 108 -107 -109 -111 -113 -123 -127 -128 -130 -131 0 
-13 -4 11 14 107 -108 -109 -111 -113 -123 -127 -128 -130 -131 0 
-7 89 -84 126 -107 -108 -109 -111 -113 -123 -127 -128 -130 -131 0 
-105 -9 8 107 -108 -109 -111 -113 -123 -127 -128 -130 -131 0 
-8 9 -19 107 -108 -109 -111 -113 -123 -127 -128 -130 -131 0 
-9 8 -40 24 88 -6 107 -108 -109 -111 -113 -123 -127 -128 -130 -131 0 
-7 89 -8 9 -19 131 -107 -108 -109 -111 -113 -123 -127 -128 -130 0 
-13 -8 9 107 -108 -109 -111 -113 -123 -127 -128 -130 -131 0 
